(declare-sort sk 0)
(declare-datatypes () ((Nat (Z) (S (p Nat)))))
(declare-fun plus (Nat Nat) Nat)
(declare-fun le (Nat Nat) Bool)
(assert (forall ((y Nat)) (= (plus Z y) y)))
(assert
  (forall ((y Nat) (z Nat)) (= (plus (S z) y) (S (plus z y)))))
(assert (forall ((y Nat)) (= (le Z y) true)))
(assert (forall ((z Nat)) (= (le (S z) Z) false)))
(assert
  (forall ((z Nat) (x2 Nat)) (= (le (S z) (S x2)) (le z x2))))
(assert-not (forall ((n Nat) (m Nat)) (le n (plus m n))))
(check-sat)
